100
80
54
59
53
11
81
48
86
23
68
99
10
44
16
89
40
47
56
8
25
33
41
1
4
2
27
30
50
28
91
97
38
96
94
32
77
29
46
67
36
70
93
35
20
15
21
12
88
62
98
34
72
39
45
63
82
84
52
57
73
76
58
3
43
61
87
5
6
83
78
19
85
74
42
69
90
18
95
64
71
51
66
60
31
100
22
9
65
49
92
17
37
26
7
55
75
13
14
24
79